%-----------------------------------------------------------------------------%
% Dual Arm Multi Capacity Multi Tool Scheduling / Routing
% Assembly Configuration
% Auto Generated by python script, authored by Johan Ludde Wessen 
%-----------------------------------------------------------------------------%


task_durations = [|31, 23, 26, 31, 34, 30, 46, 52, 48, 52, 47, 57,  6,  7,  4,  6,  6
                  |25, 23, 23, 27, 26, 31, 51, 55, 50, 42, 47, 63,  6,  7,  5,  5,  5
                  |];


TRAY_TASKS = 1..4;
CAMERA_TASKS = {  };
OUTPUT_TASKS = { 12 };


empty_gripper_tasks = 13..17;


gripper_pick_tasks_orders = [|1, 7, -1
|2, 8, -1
|3, 9, -1
|4, 10, -1
|5, 11, -1
|6, 12, -1
|];

suction_pick_tasks_orders = [||];

fixture_task_orders = [|7, 13, 8, 14, 5, -1, -1, -1
|9, 15, 10, 16, 11, 17, 6, -1
|];

